&control
    calculation = 'md'
    prefix='benzene'    
    pseudo_dir = '/n/home03/jonpvandermause/qe-6.2.1/pseudo',
    outdir='/n/home03/jonpvandermause/Cluster/Benzene_SCF'
    dt = 20
    nstep = 1000
 /
 &system
    ibrav = 6,
    celldm(1) = 32,
    celldm(3) = 0.83,
    nat = 12,
    ntyp = 2,
    ecutwfc = 25,
    ecutrho = 250,
    nosym = .true.
 /  
 &electrons
    diagonalization='david'
    mixing_mode = 'plain'
    mixing_beta = 0.7
    conv_thr =  1.0d-10
    !tqr=.true.
 /
 &ions
    pot_extrapolation = 'second-order'
    wfc_extrapolation = 'second-order'
 /
ATOMIC_SPECIES
C 12.01  C.pz-rrkjus.UPF
H 1.0    H.pz-rrkjus.UPF
ATOMIC_POSITIONS {angstrom}
 C 5.61413 6.33115 4.97437
 C 6.81250 8.46670 5.02472
 C 8.03857 7.72874 4.98410
 C 8.03259 6.33780 5.02280
 C 6.83504 5.61403 5.04170
 C 5.60183 7.67584 5.04611
 H 6.81631 9.46675 4.99225
 H 8.97985 8.26623 5.04046
 H 9.02458 5.78721 5.02176
 H 6.80084 4.54059 5.00199
 H 4.68018 5.79982 5.03364
 H 4.68549 8.24954 5.04292
K_POINTS {gamma}