 &control
    calculation = 'md'
    restart_mode = 'from_scratch'
    pseudo_dir = '/n/home03/jonpvandermause/qe-6.2.1/pseudo'
    outdir = '/n/home03/jonpvandermause/Cluster/Si_Supercell_MD'
    dt = 20
    nstep = 1000
    disk_io = 'high'
 /
 &system
    ibrav= 0
    nat= 54
    ntyp= 1
    ecutwfc =18.0
    nosym = .true.
 /
 &electrons
    conv_thr =  1.0d-10
    mixing_beta = 0.7
 /
 &ions
    pot_extrapolation = 'second-order'
    wfc_extrapolation = 'second-order'
 /
ATOMIC_SPECIES
 Si  28.086  Si.pz-vbc.UPF
CELL_PARAMETERS {angstrom}
 0.00000 8.14650 8.14650
 8.14650 0.00000 8.14650
 8.14650 8.14650 0.00000
ATOMIC_POSITIONS {angstrom}
 Si -0.02512 -0.01234 -0.05173
 Si 1.31223 1.40583 1.33271
 Si 2.74705 2.69304 -0.02458
 Si 4.02578 4.11756 1.35802
 Si 5.40063 5.47126 0.05117
 Si 6.75039 6.82963 1.39740
 Si 2.73192 -0.01707 2.71968
 Si 4.09459 1.39071 4.10104
 Si 5.42680 2.67490 2.67390
 Si 6.83128 4.11151 4.11680
 Si 8.13857 5.44752 2.73042
 Si 9.51583 6.76922 4.12365
 Si 5.45777 0.04751 5.44546
 Si 6.77875 1.35275 6.83246
 Si 8.09754 2.70554 5.44628
 Si 9.54192 4.02612 6.81616
 Si 10.82589 5.47336 5.37758
 Si 12.18230 6.73821 6.78088
 Si 0.03765 2.69502 2.67753
 Si 1.37816 4.07571 4.12005
 Si 2.71939 5.43592 2.73476
 Si 4.07606 6.77375 4.03805
 Si 5.42011 8.17534 2.75218
 Si 6.79818 9.46471 4.06740
 Si 2.71056 2.72015 5.46355
 Si 4.10970 4.04277 6.77936
 Si 5.38073 5.40398 5.46113
 Si 6.76407 6.79004 6.84069
 Si 8.12689 8.12925 5.48419
 Si 9.55000 9.50456 6.82369
 Si 5.45464 2.72594 8.18366
 Si 6.74037 4.09766 9.45915
 Si 8.12484 5.40793 8.12515
 Si 9.51362 6.74281 9.46626
 Si 10.84020 8.15676 8.10393
 Si 12.26332 9.52667 9.47406
 Si -0.04944 5.41595 5.43481
 Si 1.39938 6.77203 6.76499
 Si 2.71412 8.12719 5.47925
 Si 4.12519 9.49709 6.77352
 Si 5.40795 10.85845 5.45919
 Si 6.76182 12.24213 6.83101
 Si 2.73945 5.46115 8.18512
 Si 4.10740 6.74460 9.51468
 Si 5.47105 8.16410 8.17134
 Si 6.80913 9.53756 9.45958
 Si 8.16170 10.87743 8.17068
 Si 9.54630 12.22436 9.49832
 Si 5.40560 5.40041 10.80864
 Si 6.79236 6.82936 12.18629
 Si 8.17221 8.18195 10.83877
 Si 9.47531 9.45133 12.24875
 Si 10.88452 10.88615 10.87014
 Si 12.20411 12.18196 12.21465
K_POINTS automatic
 4 4 4  0 0 0
    