&CONTROL
	prefix = 'Al'
	wf_collect = .false.
	disk_io = 'low'
	outdir = '/Users/simonbatzner1/Desktop/Research/Research_Code/ML-electron-density/AIMD/step_Al_52'
	calculation = 'scf'
	pseudo_dir = '/Users/simonbatzner1/QE/qe-6.0/pseudo'
	tprnfor = .true.
/ 
&SYSTEM
	nat = 4
	smearing = 'mp'
	ntyp = 1
	ibrav = 0
	degauss = 0.02
	ecutwfc = 5.0
	ecutrho = 40.0
	occupations = 'smearing'
/ 
&ELECTRONS
	diagonalization = 'david'
	conv_thr = 1e-07
	mixing_beta = 0.5
/ 
&IONS
/ 
&CELL
/ 
K_POINTS {automatic}
 1 1 1  0 0 0
ATOMIC_SPECIES
  Al 26.9815385 Al.pz-vbc.UPF
CELL_PARAMETERS {angstrom}
 4.1 0.0 0.0
 0.0 4.1 0.0
 0.0 0.0 4.1
ATOMIC_POSITIONS {angstrom}
  Al -0.13486 -0.17584 -0.27770
  Al -0.02377 1.95001 2.22458
  Al 2.37358 -0.19993 2.06883
  Al 2.20484 2.32250 -0.06018
