 &control
    prefix='si'
    calculation='scf'
    verbosity = 'high'
    wf_collect = .true.
    tstress = .true.
    tprnfor = .true.
    pseudo_dir = '/n/home03/jonpvandermause/qe-6.2.1/pseudo'
    outdir = '/n/home03/jonpvandermause/Cluster/Si_Supercell_SCF'
 /
 &system
    ibrav= 0
    nat= 128
    ntyp= 1
    ecutwfc =18.0
 /
 &electrons
    conv_thr =  1.0d-10
 /
ATOMIC_SPECIES
 Si  28.086  Si.pz-vbc.UPF
CELL_PARAMETERS {angstrom}
 0.00000 10.86200 10.86200
 10.86200 0.00000 10.86200
 10.86200 10.86200 0.00000
ATOMIC_POSITIONS {angstrom}
 Si 0.00000 0.00000 0.00000
 Si 1.35775 1.35775 1.35775
 Si 2.71550 2.71550 0.00000
 Si 4.07325 4.07325 1.35775
 Si 5.43100 5.43100 0.00000
 Si 6.78875 6.78875 1.35775
 Si 8.14650 8.14650 0.00000
 Si 9.50425 9.50425 1.35775
 Si 2.71550 0.00000 2.71550
 Si 4.07325 1.35775 4.07325
 Si 5.43100 2.71550 2.71550
 Si 6.78875 4.07325 4.07325
 Si 8.14650 5.43100 2.71550
 Si 9.50425 6.78875 4.07325
 Si 10.86200 8.14650 2.71550
 Si 12.21975 9.50425 4.07325
 Si 5.43100 0.00000 5.43100
 Si 6.78875 1.35775 6.78875
 Si 8.14650 2.71550 5.43100
 Si 9.50425 4.07325 6.78875
 Si 10.86200 5.43100 5.43100
 Si 12.21975 6.78875 6.78875
 Si 13.57750 8.14650 5.43100
 Si 14.93525 9.50425 6.78875
 Si 8.14650 0.00000 8.14650
 Si 9.50425 1.35775 9.50425
 Si 10.86200 2.71550 8.14650
 Si 12.21975 4.07325 9.50425
 Si 13.57750 5.43100 8.14650
 Si 14.93525 6.78875 9.50425
 Si 16.29300 8.14650 8.14650
 Si 17.65075 9.50425 9.50425
 Si 0.00000 2.71550 2.71550
 Si 1.35775 4.07325 4.07325
 Si 2.71550 5.43100 2.71550
 Si 4.07325 6.78875 4.07325
 Si 5.43100 8.14650 2.71550
 Si 6.78875 9.50425 4.07325
 Si 8.14650 10.86200 2.71550
 Si 9.50425 12.21975 4.07325
 Si 2.71550 2.71550 5.43100
 Si 4.07325 4.07325 6.78875
 Si 5.43100 5.43100 5.43100
 Si 6.78875 6.78875 6.78875
 Si 8.14650 8.14650 5.43100
 Si 9.50425 9.50425 6.78875
 Si 10.86200 10.86200 5.43100
 Si 12.21975 12.21975 6.78875
 Si 5.43100 2.71550 8.14650
 Si 6.78875 4.07325 9.50425
 Si 8.14650 5.43100 8.14650
 Si 9.50425 6.78875 9.50425
 Si 10.86200 8.14650 8.14650
 Si 12.21975 9.50425 9.50425
 Si 13.57750 10.86200 8.14650
 Si 14.93525 12.21975 9.50425
 Si 8.14650 2.71550 10.86200
 Si 9.50425 4.07325 12.21975
 Si 10.86200 5.43100 10.86200
 Si 12.21975 6.78875 12.21975
 Si 13.57750 8.14650 10.86200
 Si 14.93525 9.50425 12.21975
 Si 16.29300 10.86200 10.86200
 Si 17.65075 12.21975 12.21975
 Si 0.00000 5.43100 5.43100
 Si 1.35775 6.78875 6.78875
 Si 2.71550 8.14650 5.43100
 Si 4.07325 9.50425 6.78875
 Si 5.43100 10.86200 5.43100
 Si 6.78875 12.21975 6.78875
 Si 8.14650 13.57750 5.43100
 Si 9.50425 14.93525 6.78875
 Si 2.71550 5.43100 8.14650
 Si 4.07325 6.78875 9.50425
 Si 5.43100 8.14650 8.14650
 Si 6.78875 9.50425 9.50425
 Si 8.14650 10.86200 8.14650
 Si 9.50425 12.21975 9.50425
 Si 10.86200 13.57750 8.14650
 Si 12.21975 14.93525 9.50425
 Si 5.43100 5.43100 10.86200
 Si 6.78875 6.78875 12.21975
 Si 8.14650 8.14650 10.86200
 Si 9.50425 9.50425 12.21975
 Si 10.86200 10.86200 10.86200
 Si 12.21975 12.21975 12.21975
 Si 13.57750 13.57750 10.86200
 Si 14.93525 14.93525 12.21975
 Si 8.14650 5.43100 13.57750
 Si 9.50425 6.78875 14.93525
 Si 10.86200 8.14650 13.57750
 Si 12.21975 9.50425 14.93525
 Si 13.57750 10.86200 13.57750
 Si 14.93525 12.21975 14.93525
 Si 16.29300 13.57750 13.57750
 Si 17.65075 14.93525 14.93525
 Si 0.00000 8.14650 8.14650
 Si 1.35775 9.50425 9.50425
 Si 2.71550 10.86200 8.14650
 Si 4.07325 12.21975 9.50425
 Si 5.43100 13.57750 8.14650
 Si 6.78875 14.93525 9.50425
 Si 8.14650 16.29300 8.14650
 Si 9.50425 17.65075 9.50425
 Si 2.71550 8.14650 10.86200
 Si 4.07325 9.50425 12.21975
 Si 5.43100 10.86200 10.86200
 Si 6.78875 12.21975 12.21975
 Si 8.14650 13.57750 10.86200
 Si 9.50425 14.93525 12.21975
 Si 10.86200 16.29300 10.86200
 Si 12.21975 17.65075 12.21975
 Si 5.43100 8.14650 13.57750
 Si 6.78875 9.50425 14.93525
 Si 8.14650 10.86200 13.57750
 Si 9.50425 12.21975 14.93525
 Si 10.86200 13.57750 13.57750
 Si 12.21975 14.93525 14.93525
 Si 13.57750 16.29300 13.57750
 Si 14.93525 17.65075 14.93525
 Si 8.14650 8.14650 16.29300
 Si 9.50425 9.50425 17.65075
 Si 10.86200 10.86200 16.29300
 Si 12.21975 12.21975 17.65075
 Si 13.57750 13.57750 16.29300
 Si 14.93525 14.93525 17.65075
 Si 16.29300 16.29300 16.29300
 Si 17.65075 17.65075 17.65075
K_POINTS automatic
 8 8 8  0 0 0
    