 &control
    calculation = 'md'
    restart_mode = 'from_scratch'
    pseudo_dir = '/n/home03/jonpvandermause/qe-6.2.1/pseudo'
    outdir = '/n/home03/jonpvandermause/Cluster/Si_Supercell_MD'
    dt = 20
    nstep = 1000
    disk_io = 'high'
 /
 &system
    ibrav= 0
    nat= 54
    ntyp= 1
    ecutwfc =18.0
    nosym = .true.
 /
 &electrons
    conv_thr =  1.0d-10
    mixing_beta = 0.7
 /
 &ions
    pot_extrapolation = 'second-order'
    wfc_extrapolation = 'second-order'
 /
ATOMIC_SPECIES
 Si  28.086  Si.pz-vbc.UPF
CELL_PARAMETERS {angstrom}
 0.00000 8.14650 8.14650
 8.14650 0.00000 8.14650
 8.14650 8.14650 0.00000
ATOMIC_POSITIONS {angstrom}
 Si 0.03536 0.03430 0.02262
 Si 1.41071 1.38889 1.35423
 Si 2.76073 2.76477 -0.04609
 Si 4.12034 4.02868 1.31827
 Si 5.47085 5.46039 0.02306
 Si 6.78546 6.73994 1.33306
 Si 2.72095 0.02348 2.75206
 Si 4.06436 1.33412 4.06667
 Si 5.46626 2.67625 2.70948
 Si 6.82109 4.08311 4.02237
 Si 8.12432 5.40040 2.69728
 Si 9.47708 6.74342 4.02846
 Si 5.38228 -0.05329 5.46198
 Si 6.74447 1.32175 6.77423
 Si 8.10921 2.75127 5.46155
 Si 9.50915 4.11787 6.80232
 Si 10.87086 5.46215 5.40194
 Si 12.27180 6.82069 6.81700
 Si -0.03054 2.68041 2.72120
 Si 1.39133 4.08730 4.03802
 Si 2.66770 5.48504 2.70338
 Si 4.06928 6.77128 4.12631
 Si 5.39424 8.13806 2.75787
 Si 6.79785 9.47736 4.03081
 Si 2.66713 2.67313 5.46017
 Si 4.12440 4.02742 6.77046
 Si 5.43998 5.47652 5.48131
 Si 6.83686 6.79451 6.81039
 Si 8.19340 8.16506 5.43405
 Si 9.51043 9.45011 6.82197
 Si 5.38358 2.76768 8.09233
 Si 6.83657 4.06684 9.50869
 Si 8.15083 5.46136 8.11830
 Si 9.49771 6.78623 9.52352
 Si 10.86635 8.16759 8.16120
 Si 12.23244 9.45741 9.55355
 Si -0.03106 5.44785 5.38870
 Si 1.36668 6.81535 6.77468
 Si 2.71167 8.18565 5.43181
 Si 4.07632 9.50233 6.82837
 Si 5.48416 10.88427 5.40450
 Si 6.81117 12.19631 6.76987
 Si 2.69425 5.44539 8.14201
 Si 4.04348 6.80312 9.50227
 Si 5.38437 8.13087 8.15125
 Si 6.82253 9.50967 9.54640
 Si 8.12343 10.89429 8.13791
 Si 9.50104 12.19347 9.49758
 Si 5.44307 5.45579 10.85733
 Si 6.74888 6.77263 12.17459
 Si 8.10389 8.15111 10.81357
 Si 9.53750 9.54696 12.20269
 Si 10.90499 10.90672 10.91049
 Si 12.25028 12.18742 12.16888
K_POINTS automatic
 4 4 4  0 0 0
    