 &control
    calculation = 'md'
    pseudo_dir = '/n/home03/jonpvandermause/qe-6.2.1/pseudo'
    outdir = '/n/home03/jonpvandermause/SiC_MD'
    dt = 20
    nstep = 100
 /
 &system
    ibrav= 0
    nat= 54
    ntyp= 2
    ecutwfc =18.0
    nosym = .true.
 /
 &electrons
    conv_thr =  1.0d-10
    mixing_beta = 0.7
 /
 &ions
    pot_extrapolation = 'second-order'
    wfc_extrapolation = 'second-order'
 /
ATOMIC_SPECIES
 Si  28.086  Si.pz-vbc.UPF
 C  12.011  C.pz-rrkjus.UPF
CELL_PARAMETERS {angstrom}
 0.00000 6.51661 6.51661
 6.51661 0.00000 6.51661
 6.51661 6.51661 0.00000
ATOMIC_POSITIONS {angstrom}
 Si 0.20843 -0.21021 -0.14493
 C 1.06536 1.17689 0.94442
 Si 2.02496 2.24041 0.06109
 C 3.11205 3.22026 1.21873
 Si 4.41629 4.50554 -0.02128
 C 5.31227 5.34327 1.01929
 Si 2.21381 0.15035 2.32708
 C 3.24992 1.27980 3.17053
 Si 4.25382 1.97285 2.01889
 C 5.29552 3.42817 3.19356
 Si 6.39638 4.42111 2.00031
 C 7.74851 5.27746 3.33727
 Si 4.19051 0.20857 4.21267
 C 5.55310 0.94896 5.54879
 Si 6.59027 2.00049 4.35852
 C 7.45657 3.16920 5.63623
 Si 8.66604 4.19156 4.31257
 C 9.84583 5.38072 5.32320
 Si -0.16329 1.97989 1.96643
 C 1.02905 3.44648 3.17022
 Si 2.21402 4.13578 2.23096
 C 3.40463 5.47586 3.06607
 Si 4.20706 6.61350 2.36174
 C 5.46201 7.60806 3.39372
 Si 2.09344 2.15732 4.15418
 C 3.24805 3.08030 5.47202
 Si 4.47593 4.45842 4.22395
 C 5.23753 5.32667 5.46294
 Si 6.50857 6.44888 4.53981
 C 7.61188 7.48532 5.56163
 Si 4.44862 2.24702 6.40390
 C 5.22472 3.46496 7.78877
 Si 6.61335 4.42847 6.67982
 C 7.81313 5.45845 7.57145
 Si 8.79438 6.61430 6.57603
 C 9.71096 7.48667 7.52847
 Si 0.10134 4.43995 4.39575
 C 0.99178 5.44320 5.41472
 Si 2.08164 6.34260 4.49331
 C 3.12701 7.75918 5.22557
 Si 4.26512 8.86594 4.14444
 C 5.50417 9.90790 5.54491
 Si 2.08730 4.36415 6.65931
 C 3.30715 5.58838 7.47245
 Si 4.28512 6.30635 6.52410
 C 5.63249 7.81146 7.49965
 Si 6.45371 8.82384 6.56352
 C 7.60488 9.62341 7.53219
 Si 4.14063 4.36151 8.49753
 C 5.52488 5.25073 9.74065
 Si 6.64341 6.68142 8.53188
 C 7.58036 7.45603 9.68336
 Si 8.80707 8.81427 8.79948
 C 9.97851 9.55794 9.69155
K_POINTS automatic
 4 4 4  0 0 0
    